Route #1: 13 15 33 10 27 28 14 41 38 4 32 49 20 45 54 39 46 23 22 34
Route #2: 29 8 2 11 36 7 12
Route #3: 19 51 50 30 16 24 21
Route #4: 31 42 26 52 25 47 3 9
Route #5: 5 6 40 37 18
Route #6: 1 53 35 43 48
Route #7: 44 17
cost 2168.8004904814816
